RT is False
Default write of storage_offers_DA.csv just to have a file (but constraint should be inactive)
Reading model...
...model read.
creating competitive generators file...
...competitive generators recorded.
Loading data...
.. day-ahead data read.
Compiling instance...
...instance created.
Creating Offer Mitigation (model will solve as dispatch if TRUE)...
...storage offer mitigation file created
Converting model to MPEC...
...converted
MIP
NOTE: initial MIP solve with only storage competitive to get feasible solution
Solving...

Welcome to IBM(R) ILOG(R) CPLEX(R) Interactive Optimizer 12.9.0.0
  with Simplex, Mixed Integer & Barrier Optimizers
5725-A06 5725-A29 5724-Y48 5724-Y49 5724-Y54 5724-Y55 5655-Y21
Copyright IBM Corp. 1988, 2019.  All Rights Reserved.

Type 'help' for a list of available commands.
Type 'help' followed by a command name for more
information on commands.

CPLEX> Logfile 'cplex.log' closed.
Logfile 'C:\Users\llavin\Desktop\competitiveMPEC_dev1.27\logs\tmp5ouowctm.cplex.log' open.
CPLEX> New value for parallel optimization mode: -1
CPLEX> New value for mixed integer optimality gap tolerance: 0.01
CPLEX> New value for feasibility tolerance: 1e-05
CPLEX> New value for deterministic time limit in ticks: 150000
CPLEX> Problem 'C:\Users\llavin\Desktop\competitiveMPEC_dev1.27\logs\tmpo6nsvtjq.pyomo.lp' read.
Read time = 0.23 sec. (13.82 ticks)
CPLEX> Problem name         : C:\Users\llavin\Desktop\competitiveMPEC_dev1.27\logs\tmpo6nsvtjq.pyomo.lp
Objective sense      : Maximize
Variables            :   53321  [Nneg: 889,  Box: 21854,  Free: 3480,
                                 Binary: 27098]
Objective nonzeros   :    8904
Linear constraints   :  122140  [Less: 40959,  Greater: 58612,  Equal: 22569]
  Nonzeros           :  288399
  RHS nonzeros       :   66924

Variables            : Min LB: -5000.000        Max UB: 5000.000       
Objective nonzeros   : Min   : 0.1000000        Max   : 722.0000       
Linear constraints   :
  Nonzeros           : Min   : 0.1000000        Max   : 1960000.       
  RHS nonzeros       : Min   : 0.1000000        Max   : 2000000.       
CPLEX> CPXPARAM_Parallel                                -1
CPXPARAM_Simplex_Tolerances_Feasibility          1.0000000000000001e-05
CPXPARAM_DetTimeLimit                            150000
CPXPARAM_MIP_Tolerances_MIPGap                   0.01
Tried aggregator 3 times.
MIP Presolve eliminated 88381 rows and 19206 columns.
MIP Presolve added 3289 rows and 0 columns.
MIP Presolve modified 24404 coefficients.
Aggregator did 12807 substitutions.
Reduced MIP has 24241 rows, 20721 columns, and 67983 nonzeros.
Reduced MIP has 8172 binaries, 0 generals, 0 SOSs, and 0 indicators.
Presolve time = 0.31 sec. (165.78 ticks)
Probing fixed 425 vars, tightened 5834 bounds.
Probing time = 0.08 sec. (20.68 ticks)
Tried aggregator 2 times.
MIP Presolve eliminated 944 rows and 852 columns.
MIP Presolve modified 2946 coefficients.
Aggregator did 51 substitutions.
Reduced MIP has 23246 rows, 19818 columns, and 65090 nonzeros.
Reduced MIP has 7746 binaries, 0 generals, 0 SOSs, and 0 indicators.
Presolve time = 0.13 sec. (88.54 ticks)
Probing fixed 0 vars, tightened 203 bounds.
Probing time = 0.13 sec. (20.60 ticks)
Clique table members: 37950.
MIP emphasis: balance optimality and feasibility.
MIP search method: dynamic search.
Parallel mode: opportunistic, using up to 32 threads.
Root relaxation solution time = 0.61 sec. (686.63 ticks)

        Nodes                                         Cuts/
   Node  Left     Objective  IInf  Best Integer    Best Bound    ItCnt     Gap

      0     0   110598.0241   241                 110598.0241     6427         
      0     0   109833.0625   125                   Cuts: 180     6623         
      0     0   109747.9220   100                    Cuts: 76     6690         
      0     0   109727.8894    95                    Cuts: 23     6709         
      0     0   109708.7974   100                    Cuts: 13     6729         
      0     0   109685.0786    99                     Cuts: 9     6738         
      0     0   109663.9831   104                Flowcuts: 10     6747         
      0     0   109662.9044   107                  MIRcuts: 1     6748         
      0     0   109661.2024   104                 Flowcuts: 1     6749         
      0    23    98270.6500    92                    Cuts: 11     7070         
Elapsed time = 7.75 sec. (3640.74 ticks, tree = 0.02 MB, solutions = 0)
    363   128    infeasible                       109585.9672     8349         
   1003   111    70305.5067    60                 109194.9992     8397         
   1620   532    86940.7038    74                 109194.9992    14255         
   2373   991    35005.2338    54                 109194.9992    22100         
   3096  1591    85280.6249    32                 108934.8900    31734         
   3846  1701    83159.0214    53                 108934.8900    34220         
   4524  2280    75355.0045    67                 108934.8900    49614         
   5141  2706    99356.9076    19                 108392.3171    59127         
   5684  2866   -97675.1908    68                 108392.3171    64537         
   7803  4624    52472.6714    71                 108269.9668   110494         
Elapsed time = 24.47 sec. (6742.86 ticks, tree = 34.44 MB, solutions = 1)
*  8306+ 2463                       100013.7162   108194.9718             8.18%
  11318  2875   102373.7925    12   101251.9189   108008.7663   173420    6.67%
  11715  4477        cutoff         101251.9189   107934.2457   193530    6.60%
  12586    57   105866.2025    83   101251.9189   106819.6153   195245    5.50%
  14006   244   101401.6649    39   101251.9189   106819.6153   199314    5.50%
  14341  1384   102490.3561    38   101251.9189   106819.6153   213033    5.50%
  16210  1576   103138.3753    34   101251.9189   106600.5052   214777    5.28%
  20553  1648   102520.5740    23   101251.9189   106600.5052   215049    5.28%
  24910  4259   102545.7897    61   101251.9189   106445.9635   233448    5.13%
  29189 10072   101431.2781    34   103433.6178   106294.8831   270230    2.77%
Elapsed time = 75.25 sec. (18500.95 ticks, tree = 69.30 MB, solutions = 3)
  33380  3689   105640.3256    80   104474.4723   106095.4787   292910    1.55%
  36768  4365   103839.9830    46   104512.2844   106095.4787   308387    1.51%
  38155  2078        cutoff         104512.2844   106095.4787   324221    1.51%

GUB cover cuts applied:  1
Cover cuts applied:  32
Implied bound cuts applied:  35
Flow cuts applied:  106
Mixed integer rounding cuts applied:  34
Zero-half cuts applied:  1
Gomory fractional cuts applied:  5

Root node processing (before b&c):
  Real time             =    5.73 sec. (3607.75 ticks)
Parallel b&c, 32 threads:
  Real time             =   76.00 sec. (17967.60 ticks)
  Sync time (average)   =    3.08 sec.
  Wait time (average)   =    0.19 sec.
                          ------------
Total (root+branch&cut) =   81.73 sec. (21575.35 ticks)

Solution pool: 13 solutions saved.

MIP - Integer optimal, tolerance (0.01/1e-06):  Objective =  1.0451228441e+05
Current MIP best bound =  1.0554111717e+05 (gap = 1028.83, 0.98%)
Solution time =   81.77 sec.  Iterations = 340721  Nodes = 38183 (2352)
Deterministic time = 21575.51 ticks  (263.87 ticks/sec)

CPLEX> Incumbent solution written to file 'C:\Users\llavin\Desktop\competitiveMPEC_dev1.27\logs\tmp6ne3bftb.cplex.sol'.
CPLEX> Exporting results... 
